142890
32,72,47,84,1,61,21,20,16,89,15,63,19,55,39,5,68,87,12,30,64,51,4,54,29,28,11,92,88,79,82,56,22,91,7,96,105,8,67,98,18,41,80,97,45,76,85,44,24,71,99,50,81,62,31,74,34,102,3,14,60,46,13,49,25,33,73,101,23,75,27,26,9,58,65,43,86,0,57,42,78,90,59,95,77,2,93,69,100,104,37,103,10,40,66,94,53,70,35,38,36,48,17,6,52,83
